652,225
697,990
747,839
905,584
48,310
59,552
720,445
763,655
811,316
744,446
735,30
750,865
255,194
993,970
777,927
926,155
936,881
194,748
664,801
609,275
371,301
663,299
792,814
39,581
740,406
694,212
793,951
367,872
549,681
571,344
944,26
141,607
846,205
547,936
114,984
18,830
823,939
782,898
16,192
28,599
44,153
199,876
554,38
592,262
853,28
648,821
89,477
548,238
381,160
986,758

4025
708
10914
3779
3836
289
1778
983
318
4
